row=7;
Board=[|4,9,0,0,6,0,0,0,2,0|0,0,0,0,0,9,0,0,1,7|8,5,0,7,6,0,4,0,0,0|9,0,1,2,0,0,10,0,0,6|10,0,8,0,6,0,5,3,2,0|0,6,5,0,3,8,10,0,0,0|4,8,1,7,0,0,6,3,0,10|];
bottom=[161280,77760,3200,16464,291600,14400,504000,255150,384,60480]